0 39 372
1 168 234
2 546 40
3 41 425
4 83 127
5 101 795
6 397 733
7 119 866
8 155 52
9 530 3
10 504 82
11 570 176
12 275 128
13 238 168
14 7 286
15 57 333
16 258 23
17 602 28
18 511 12
19 386 453
20 1 250
21 2 655
22 585 84
23 17 50
24 61 596
25 629 161
26 347 189
27 110 142
28 659 375
29 87 12
30 227 70
31 517 19
32 508 388
33 129 33
34 434 35
35 85 258
36 122 556
37 587 4
38 489 257
39 415 2
40 39 43
41 49 216
42 232 357
43 697 18
44 66 646
45 103 132
46 24 289